16
406270 837989
182392 370555
468242 843247
749900 1625049
581384 1127636
334532 664244
483985 900936
342610 747010
260722 517890
970898 2092844
887883 1749694
657188 1376143
369265 756658
252140 483621
727195 1583667
971955 1826529
4323280